NAME : X-n247-k50
COMMENT : "Generated by Uchoa, Pecin, Pessoa, Poggi, Subramanian, and Vidal (2013)"
TYPE : CVRP
DIMENSION : 247
EDGE_WEIGHT_TYPE : EUC_2D
CAPACITY : 134
NODE_COORD_SECTION
1 500 500
2 612 199
3 864 279
4 746 395
5 738 519
6 797 59
7 867 206
8 846 399
9 654 172
10 874 275
11 675 479
12 780 372
13 692 446
14 541 183
15 747 432
16 845 403
17 787 317
18 472 325
19 682 246
20 779 308
21 815 316
22 690 306
23 923 403
24 643 526
25 849 293
26 789 424
27 766 443
28 833 421
29 999 259
30 949 458
31 675 431
32 930 480
33 809 439
34 677 173
35 479 247
36 849 285
37 711 358
38 794 366
39 878 230
40 815 259
41 739 570
42 564 141
43 845 320
44 801 473
45 769 345
46 528 256
47 700 404
48 851 369
49 925 215
50 608 654
51 878 358
52 562 80
53 577 358
54 418 269
55 766 533
56 709 585
57 933 280
58 671 522
59 725 496
60 863 250
61 864 328
62 663 460
63 848 251
64 601 17
65 559 708
66 689 490
67 745 448
68 746 345
69 776 427
70 925 251
71 677 120
72 783 292
73 484 715
74 810 261
75 680 173
76 895 273
77 785 253
78 886 125
79 916 247
80 930 364
81 584 185
82 896 334
83 874 524
84 723 145
85 440 130
86 684 326
87 737 309
88 554 164
89 859 254
90 981 334
91 717 258
92 855 321
93 623 443
94 685 162
95 686 463
96 733 431
97 664 616
98 586 486
99 523 196
100 712 541
101 759 432
102 658 583
103 860 312
104 762 359
105 818 236
106 498 208
107 504 64
108 842 221
109 895 461
110 691 136
111 870 277
112 644 438
113 556 305
114 747 522
115 728 123
116 646 445
117 867 380
118 578 286
119 669 372
120 663 507
121 691 172
122 384 100
123 791 379
124 650 277
125 725 609
126 897 279
127 758 306
128 971 92
129 641 183
130 904 291
131 825 374
132 405 305
133 786 431
134 720 677
135 563 245
136 758 442
137 750 530
138 677 72
139 567 564
140 890 268
141 833 289
142 637 408
143 845 276
144 809 347
145 818 88
146 678 259
147 853 219
148 448 734
149 493 509
150 581 187
151 789 397
152 537 240
153 714 339
154 777 371
155 683 378
156 788 597
157 499 301
158 835 370
159 598 221
160 798 509
161 857 214
162 463 400
163 844 400
164 860 267
165 662 184
166 638 185
167 814 529
168 781 293
169 688 598
170 866 305
171 786 343
172 819 476
173 789 243
174 666 41
175 715 530
176 710 93
177 992 531
178 753 534
179 566 216
180 664 76
181 934 403
182 590 211
183 646 141
184 719 302
185 919 234
186 597 150
187 761 360
188 761 367
189 684 61
190 815 469
191 813 282
192 775 536
193 960 722
194 805 178
195 686 148
196 718 138
197 870 167
198 713 265
199 713 242
200 855 296
201 535 169
202 900 254
203 877 365
204 872 218
205 957 620
206 680 535
207 701 182
208 687 498
209 828 511
210 741 557
211 720 61
212 764 452
213 500 143
214 916 505
215 803 183
216 720 452
217 852 349
218 855 297
219 755 492
220 748 411
221 829 123
222 752 217
223 949 556
224 853 596
225 764 576
226 651 282
227 747 256
228 680 49
229 839 364
230 839 66
231 846 29
232 604 597
233 762 520
234 839 244
235 896 131
236 838 735
237 586 465
238 582 216
239 681 187
240 756 182
241 924 98
242 731 625
243 428 684
244 725 408
245 792 337
246 677 142
247 797 262
PICKUP_AND_DELIVERY_SECTION
1 0 0 1000000000 0 0 0
2 0 0 1000000000 0 0 99
3 0 0 1000000000 0 0 72
4 0 0 1000000000 0 0 87
5 0 0 1000000000 0 77 0
6 0 0 1000000000 0 0 78
7 0 0 1000000000 0 0 76
8 0 0 1000000000 0 0 74
9 0 0 1000000000 0 78 0
10 0 0 1000000000 0 0 92
11 0 0 1000000000 0 0 96
12 0 0 1000000000 0 0 75
13 0 0 1000000000 0 96 0
14 0 0 1000000000 0 0 72
15 0 0 1000000000 0 0 99
16 0 0 1000000000 0 0 63
17 0 0 1000000000 0 93 0
18 0 0 1000000000 0 0 64
19 0 0 1000000000 0 0 68
20 0 0 1000000000 0 0 82
21 0 0 1000000000 0 53 0
22 0 0 1000000000 0 0 91
23 0 0 1000000000 0 0 74
24 0 0 1000000000 0 0 67
25 0 0 1000000000 0 65 0
26 0 0 1000000000 0 0 85
27 0 0 1000000000 0 0 52
28 0 0 1000000000 0 0 77
29 0 0 1000000000 0 91 0
30 0 0 1000000000 0 0 58
31 0 0 1000000000 0 0 73
32 0 0 1000000000 0 0 62
33 0 0 1000000000 0 94 0
34 0 0 1000000000 0 0 84
35 0 0 1000000000 0 0 74
36 0 0 1000000000 0 0 95
37 0 0 1000000000 0 62 0
38 0 0 1000000000 0 0 62
39 0 0 1000000000 0 0 78
40 0 0 1000000000 0 0 89
41 0 0 1000000000 0 87 0
42 0 0 1000000000 0 0 54
43 0 0 1000000000 0 0 73
44 0 0 1000000000 0 0 81
45 0 0 1000000000 0 84 0
46 0 0 1000000000 0 0 51
47 0 0 1000000000 0 0 84
48 0 0 1000000000 0 0 100
49 0 0 1000000000 0 69 0
50 0 0 1000000000 0 0 52
51 0 0 1000000000 0 0 99
52 0 0 1000000000 0 0 95
53 0 0 1000000000 0 85 0
54 0 0 1000000000 0 0 89
55 0 0 1000000000 0 0 96
56 0 0 1000000000 0 0 60
57 0 0 1000000000 0 75 0
58 0 0 1000000000 0 0 97
59 0 0 1000000000 0 0 65
60 0 0 1000000000 0 0 57
61 0 0 1000000000 0 57 0
62 0 0 1000000000 0 0 97
63 0 0 1000000000 0 0 86
64 0 0 1000000000 0 0 97
65 0 0 1000000000 0 52 0
66 0 0 1000000000 0 0 66
67 0 0 1000000000 0 0 100
68 0 0 1000000000 0 0 53
69 0 0 1000000000 0 54 0
70 0 0 1000000000 0 0 3
71 0 0 1000000000 0 0 8
72 0 0 1000000000 0 0 1
73 0 0 1000000000 0 3 0
74 0 0 1000000000 0 0 2
75 0 0 1000000000 0 0 8
76 0 0 1000000000 0 0 6
77 0 0 1000000000 0 9 0
78 0 0 1000000000 0 0 8
79 0 0 1000000000 0 0 8
80 0 0 1000000000 0 0 5
81 0 0 1000000000 0 6 0
82 0 0 1000000000 0 0 4
83 0 0 1000000000 0 0 7
84 0 0 1000000000 0 0 9
85 0 0 1000000000 0 1 0
86 0 0 1000000000 0 0 7
87 0 0 1000000000 0 0 1
88 0 0 1000000000 0 0 6
89 0 0 1000000000 0 7 0
90 0 0 1000000000 0 0 6
91 0 0 1000000000 0 0 10
92 0 0 1000000000 0 0 3
93 0 0 1000000000 0 6 0
94 0 0 1000000000 0 0 5
95 0 0 1000000000 0 0 1
96 0 0 1000000000 0 0 10
97 0 0 1000000000 0 5 0
98 0 0 1000000000 0 0 2
99 0 0 1000000000 0 0 2
100 0 0 1000000000 0 0 6
101 0 0 1000000000 0 4 0
102 0 0 1000000000 0 0 10
103 0 0 1000000000 0 0 3
104 0 0 1000000000 0 0 4
105 0 0 1000000000 0 3 0
106 0 0 1000000000 0 0 2
107 0 0 1000000000 0 0 1
108 0 0 1000000000 0 0 6
109 0 0 1000000000 0 9 0
110 0 0 1000000000 0 0 10
111 0 0 1000000000 0 0 6
112 0 0 1000000000 0 0 10
113 0 0 1000000000 0 6 0
114 0 0 1000000000 0 0 6
115 0 0 1000000000 0 0 7
116 0 0 1000000000 0 0 6
117 0 0 1000000000 0 6 0
118 0 0 1000000000 0 0 9
119 0 0 1000000000 0 0 3
120 0 0 1000000000 0 0 8
121 0 0 1000000000 0 10 0
122 0 0 1000000000 0 0 8
123 0 0 1000000000 0 0 3
124 0 0 1000000000 0 0 1
125 0 0 1000000000 0 4 0
126 0 0 1000000000 0 0 1
127 0 0 1000000000 0 0 6
128 0 0 1000000000 0 0 7
129 0 0 1000000000 0 4 0
130 0 0 1000000000 0 0 5
131 0 0 1000000000 0 0 4
132 0 0 1000000000 0 0 5
133 0 0 1000000000 0 3 0
134 0 0 1000000000 0 0 4
135 0 0 1000000000 0 0 3
136 0 0 1000000000 0 0 3
137 0 0 1000000000 0 2 0
138 0 0 1000000000 0 0 5
139 0 0 1000000000 0 0 7
140 0 0 1000000000 0 0 10
141 0 0 1000000000 0 8 0
142 0 0 1000000000 0 0 8
143 0 0 1000000000 0 0 3
144 0 0 1000000000 0 0 6
145 0 0 1000000000 0 7 0
146 0 0 1000000000 0 0 8
147 0 0 1000000000 0 0 3
148 0 0 1000000000 0 0 6
149 0 0 1000000000 0 3 0
150 0 0 1000000000 0 0 5
151 0 0 1000000000 0 0 6
152 0 0 1000000000 0 0 1
153 0 0 1000000000 0 7 0
154 0 0 1000000000 0 0 9
155 0 0 1000000000 0 0 5
156 0 0 1000000000 0 0 8
157 0 0 1000000000 0 7 0
158 0 0 1000000000 0 0 10
159 0 0 1000000000 0 0 8
160 0 0 1000000000 0 0 2
161 0 0 1000000000 0 1 0
162 0 0 1000000000 0 0 5
163 0 0 1000000000 0 0 7
164 0 0 1000000000 0 0 3
165 0 0 1000000000 0 1 0
166 0 0 1000000000 0 0 10
167 0 0 1000000000 0 0 3
168 0 0 1000000000 0 0 8
169 0 0 1000000000 0 1 0
170 0 0 1000000000 0 0 2
171 0 0 1000000000 0 0 8
172 0 0 1000000000 0 0 9
173 0 0 1000000000 0 9 0
174 0 0 1000000000 0 0 5
175 0 0 1000000000 0 0 2
176 0 0 1000000000 0 0 8
177 0 0 1000000000 0 2 0
178 0 0 1000000000 0 0 3
179 0 0 1000000000 0 0 7
180 0 0 1000000000 0 0 9
181 0 0 1000000000 0 5 0
182 0 0 1000000000 0 0 8
183 0 0 1000000000 0 0 5
184 0 0 1000000000 0 0 6
185 0 0 1000000000 0 1 0
186 0 0 1000000000 0 0 2
187 0 0 1000000000 0 0 8
188 0 0 1000000000 0 0 7
189 0 0 1000000000 0 9 0
190 0 0 1000000000 0 0 4
191 0 0 1000000000 0 0 7
192 0 0 1000000000 0 0 8
193 0 0 1000000000 0 7 0
194 0 0 1000000000 0 0 4
195 0 0 1000000000 0 0 5
196 0 0 1000000000 0 0 10
197 0 0 1000000000 0 1 0
198 0 0 1000000000 0 0 9
199 0 0 1000000000 0 0 3
200 0 0 1000000000 0 0 2
201 0 0 1000000000 0 3 0
202 0 0 1000000000 0 0 7
203 0 0 1000000000 0 0 6
204 0 0 1000000000 0 0 7
205 0 0 1000000000 0 4 0
206 0 0 1000000000 0 0 4
207 0 0 1000000000 0 0 4
208 0 0 1000000000 0 0 7
209 0 0 1000000000 0 3 0
210 0 0 1000000000 0 0 4
211 0 0 1000000000 0 0 2
212 0 0 1000000000 0 0 9
213 0 0 1000000000 0 5 0
214 0 0 1000000000 0 0 1
215 0 0 1000000000 0 0 1
216 0 0 1000000000 0 0 7
217 0 0 1000000000 0 4 0
218 0 0 1000000000 0 0 8
219 0 0 1000000000 0 0 5
220 0 0 1000000000 0 0 1
221 0 0 1000000000 0 1 0
222 0 0 1000000000 0 0 5
223 0 0 1000000000 0 0 6
224 0 0 1000000000 0 0 8
225 0 0 1000000000 0 6 0
226 0 0 1000000000 0 0 5
227 0 0 1000000000 0 0 10
228 0 0 1000000000 0 0 10
229 0 0 1000000000 0 4 0
230 0 0 1000000000 0 0 4
231 0 0 1000000000 0 0 8
232 0 0 1000000000 0 0 7
233 0 0 1000000000 0 1 0
234 0 0 1000000000 0 0 3
235 0 0 1000000000 0 0 5
236 0 0 1000000000 0 0 5
237 0 0 1000000000 0 7 0
238 0 0 1000000000 0 0 7
239 0 0 1000000000 0 0 4
240 0 0 1000000000 0 0 6
241 0 0 1000000000 0 3 0
242 0 0 1000000000 0 0 3
243 0 0 1000000000 0 0 10
244 0 0 1000000000 0 0 8
245 0 0 1000000000 0 5 0
246 0 0 1000000000 0 0 6
247 0 0 1000000000 0 0 6
